10
1 0 8
2 0 7
2 1 10
3 0 6
3 1 9
3 2 6
4 0 9
4 1 6
4 2 5
4 3 6
5 0 8
5 1 4
5 2 4
5 3 6
5 4 9
6 0 6
6 1 1
6 2 4
6 3 10
6 4 8
6 5 10
7 0 9
7 1 3
7 2 6
7 3 8
7 4 10
7 5 5
7 6 4
8 0 6
8 1 7
8 2 8
8 3 4
8 4 3
8 5 7
8 6 9
8 7 10
9 0 10
9 1 6
9 2 6
9 3 10
9 4 10
9 5 10
9 6 4
9 7 2
9 8 4
